11771 8602 0 500 499 498 497 496 495 494 492 491 490 489 488 486 484 482 481 480 479 478 477 475 474 473 472 471 470 469 467 466 465 464 463 462 460 459 458 457 456 455 454 453 451 449 448 447 445 444 442 441 440 439 438 437 436 435 434 433 432 431 430 429 428 427 426 424 423 422 420 419 418 417 416 415 414 413 411 409 408 406 405 404 402 401 399 398 397 396 395 394 393 392 391 389 388 385 381 380 379 378 377 376 375 373 372 370 368 367 366 365 364 363 361 360 359 358 357 356 355 354 353 351 350 349 348 347 346 345 344 343 342 341 340 337 336 335 334 333 331 330 329 328 323 322 320 318 315 314 313 312 311 310 309 308 306 302 301 300 297 296 295 294 293 292 291 289 288 287 283 282 281 280 278 277 276 275 273 272 271 270 268 267 266 262 261 260 259 258 257 256 254 253 250 248 247 246 245 243 242 241 240 239 238 237 236 235 234 233 231 230 229 228 227 226 225 224 221 220 219 218 215 213 212 211 210 209 207 204 203 201 199 196 195 194 193 191 190 189 188 187 186 185 183 182 181 180 179 178 177 176 174 173 170 169 168 167 166 165 164 163 161 160 159 158 157 156 154 153 151 150 149 147 145 144 143 142 141 140 138 137 135 134 132 130 129 127 126 125 122 121 120 118 117 116 115 114 113 112 109 108 106 103 102 101 100 99 97 96 95 94 93 91 90 89 88 87 86 85 84 82 81 80 78 77 76 75 74 73 71 70 69 68 67 66 65 64 62 61 60 59 58 57 56 54 53 52 51 50 49 48 44 43 42 41 40 38 37 36 35 34 31 30 28 27 26 25 24 23 21 20 19 18 17 16 15 14 11 9 7 5 3 2 